1 53 44 31 49 1 
1 50 2 42 10 3 15 54 41 1 
1 60 11 20 43 4 40 46 6 19 1 
1 26 16 57 18 1 
1 21 14 27 5 39 37 1 
1 29 58 33 35 12 48 45 52 51 63 1 
1 22 62 61 38 17 55 1 
1 8 24 47 32 1 
1 30 9 36 28 7 13 1 
1 25 34 56 23 59 1 
